p cnf 382 907
e 1 2 3 4 5 6 7 8 9 10 11 0
a 12 13 14 15 16 17 18 19 20 21 22 0
e 23 24 25 26 27 28 29 30 31 32 33 0
a 34 35 36 37 38 39 40 41 42 43 44 0
e 45 46 47 48 49 50 51 52 53 54 55 0
a 56 57 58 59 60 61 62 63 64 65 66 0
e 67 68 69 70 71 72 73 74 75 76 77 0
a 78 79 80 81 82 83 84 85 86 87 88 0
e 89 90 91 92 93 94 95 96 97 98 99 0
a 100 101 102 103 104 105 106 107 108 109 110 0
e 111 112 113 114 115 116 117 118 119 120 121 175 325 326 327 339 159 278 353 125 135 171 186 252 283 300 352 132 198 145 176 202 265 332 312 376 264 288 319 381 218 197 292 362 127 129 169 205 228 240 246 255 258 324 177 203 306 365 188 273 157 231 296 349 217 229 236 254 275 284 313 338 350 369 224 287 140 158 214 251 309 379 142 181 192 314 256 133 184 238 249 282 310 322 336 361 173 174 179 268 367 243 245 267 271 330 253 286 131 139 195 221 230 165 166 208 225 242 259 372 130 141 160 172 281 315 366 250 331 351 187 276 137 149 311 377 196 215 274 290 347 122 219 234 270 289 136 207 355 303 320 333 128 154 220 223 248 363 126 162 201 294 335 378 257 266 124 152 209 261 358 138 328 348 155 247 317 143 161 163 170 323 147 167 182 293 307 346 360 373 148 150 190 239 262 341 146 164 299 308 321 344 123 183 206 244 260 305 318 340 235 279 285 295 337 180 232 168 334 357 189 280 374 199 301 345 193 194 237 370 211 226 359 380 382 156 178 302 342 354 204 368 371 191 213 272 375 134 185 212 233 277 298 144 200 364 227 297 356 151 153 216 269 343 210 263 316 222 241 291 304 329 0
122 0
123 0
124 0
-111 125 0
111 -125 0
-112 126 0
112 -126 0
-113 127 0
113 -127 0
-114 128 0
114 -128 0
-115 129 0
115 -129 0
-116 130 0
116 -130 0
-117 131 0
117 -131 0
-118 132 0
118 -132 0
-119 133 0
119 -133 0
-120 134 0
120 -134 0
-121 135 0
121 -135 0
-1 23 0
-2 24 0
-3 25 0
-4 26 0
-5 27 0
-6 28 0
-7 29 0
-8 30 0
-9 31 0
-10 32 0
-11 33 0
-23 45 0
-24 46 0
-25 47 0
-26 48 0
-27 49 0
-28 50 0
-29 51 0
-30 52 0
-31 53 0
-32 54 0
-33 55 0
-45 67 0
-46 68 0
-47 69 0
-48 70 0
-49 71 0
-50 72 0
-51 73 0
-52 74 0
-53 75 0
-54 76 0
-55 77 0
-67 89 0
-68 90 0
-69 91 0
-70 92 0
-71 93 0
-72 94 0
-73 95 0
-74 96 0
-75 97 0
-76 98 0
-77 99 0
-89 111 0
-90 112 0
-91 113 0
-92 114 0
-93 115 0
-94 116 0
-95 117 0
-96 118 0
-97 119 0
-98 120 0
-99 121 0
136 -1 0
-136 1 0
-136 137 0
137 -2 0
136 -137 2 0
-136 138 -2 0
-138 2 0
136 -138 0
-137 139 0
139 -3 0
137 -139 3 0
-138 140 0
-137 140 -3 0
138 -140 3 0
137 -140 0
-139 141 0
141 -4 0
139 -141 4 0
-140 142 0
-139 142 -4 0
140 -142 4 0
139 -142 0
-141 143 0
143 -5 0
141 -143 5 0
-142 144 0
-141 144 -5 0
142 -144 5 0
141 -144 0
-143 145 0
145 -6 0
143 -145 6 0
-144 146 0
-143 146 -6 0
144 -146 6 0
143 -146 0
-145 147 0
147 -7 0
145 -147 7 0
-146 148 0
-145 148 -7 0
146 -148 7 0
145 -148 0
-147 149 0
149 -8 0
147 -149 8 0
-148 150 0
-147 150 -8 0
148 -150 8 0
147 -150 0
-149 151 0
151 -9 0
149 -151 9 0
-150 152 0
-149 152 -9 0
150 -152 9 0
149 -152 0
-151 153 0
153 -10 0
151 -153 10 0
-152 154 0
-151 154 -10 0
152 -154 10 0
151 -154 0
-153 155 0
155 -11 0
153 -155 11 0
-154 156 0
-153 156 -11 0
154 -156 11 0
153 -156 0
-157 155 0
-157 -156 0
158 1 -23 0
-158 -1 0
-158 23 0
-158 159 0
159 2 -24 0
158 -159 -2 0
158 -159 24 0
-158 160 2 -24 0
-160 -2 0
-160 24 0
158 -160 0
-159 161 0
161 3 -25 0
159 -161 -3 0
159 -161 25 0
-160 162 0
-159 162 3 -25 0
160 -162 -3 0
160 -162 25 0
159 -162 0
-161 163 0
163 4 -26 0
161 -163 -4 0
161 -163 26 0
-162 164 0
-161 164 4 -26 0
162 -164 -4 0
162 -164 26 0
161 -164 0
-163 165 0
165 5 -27 0
163 -165 -5 0
163 -165 27 0
-164 166 0
-163 166 5 -27 0
164 -166 -5 0
164 -166 27 0
163 -166 0
-165 167 0
167 6 -28 0
165 -167 -6 0
165 -167 28 0
-166 168 0
-165 168 6 -28 0
166 -168 -6 0
166 -168 28 0
165 -168 0
-167 169 0
169 7 -29 0
167 -169 -7 0
167 -169 29 0
-168 170 0
-167 170 7 -29 0
168 -170 -7 0
168 -170 29 0
167 -170 0
-169 171 0
171 8 -30 0
169 -171 -8 0
169 -171 30 0
-170 172 0
-169 172 8 -30 0
170 -172 -8 0
170 -172 30 0
169 -172 0
-171 173 0
173 9 -31 0
171 -173 -9 0
171 -173 31 0
-172 174 0
-171 174 9 -31 0
172 -174 -9 0
172 -174 31 0
171 -174 0
-173 175 0
175 10 -32 0
173 -175 -10 0
173 -175 32 0
-174 176 0
-173 176 10 -32 0
174 -176 -10 0
174 -176 32 0
173 -176 0
-175 177 0
177 11 -33 0
175 -177 -11 0
175 -177 33 0
-176 178 0
-175 178 11 -33 0
176 -178 -11 0
176 -178 33 0
175 -178 0
-157 177 0
-157 -178 0
179 23 -45 0
-179 -23 0
-179 45 0
-179 180 0
180 24 -46 0
179 -180 -24 0
179 -180 46 0
-179 181 24 -46 0
-181 -24 0
-181 46 0
179 -181 0
-180 182 0
182 25 -47 0
180 -182 -25 0
180 -182 47 0
-181 183 0
-180 183 25 -47 0
181 -183 -25 0
181 -183 47 0
180 -183 0
-182 184 0
184 26 -48 0
182 -184 -26 0
182 -184 48 0
-183 185 0
-182 185 26 -48 0
183 -185 -26 0
183 -185 48 0
182 -185 0
-184 186 0
186 27 -49 0
184 -186 -27 0
184 -186 49 0
-185 187 0
-184 187 27 -49 0
185 -187 -27 0
185 -187 49 0
184 -187 0
-186 188 0
188 28 -50 0
186 -188 -28 0
186 -188 50 0
-187 189 0
-186 189 28 -50 0
187 -189 -28 0
187 -189 50 0
186 -189 0
-188 190 0
190 29 -51 0
188 -190 -29 0
188 -190 51 0
-189 191 0
-188 191 29 -51 0
189 -191 -29 0
189 -191 51 0
188 -191 0
-190 192 0
192 30 -52 0
190 -192 -30 0
190 -192 52 0
-191 193 0
-190 193 30 -52 0
191 -193 -30 0
191 -193 52 0
190 -193 0
-192 194 0
194 31 -53 0
192 -194 -31 0
192 -194 53 0
-193 195 0
-192 195 31 -53 0
193 -195 -31 0
193 -195 53 0
192 -195 0
-194 196 0
196 32 -54 0
194 -196 -32 0
194 -196 54 0
-195 197 0
-194 197 32 -54 0
195 -197 -32 0
195 -197 54 0
194 -197 0
-196 198 0
198 33 -55 0
196 -198 -33 0
196 -198 55 0
-197 199 0
-196 199 33 -55 0
197 -199 -33 0
197 -199 55 0
196 -199 0
-157 198 0
-157 -199 0
200 45 -67 0
-200 -45 0
-200 67 0
-200 201 0
201 46 -68 0
200 -201 -46 0
200 -201 68 0
-200 202 46 -68 0
-202 -46 0
-202 68 0
200 -202 0
-201 203 0
203 47 -69 0
201 -203 -47 0
201 -203 69 0
-202 204 0
-201 204 47 -69 0
202 -204 -47 0
202 -204 69 0
201 -204 0
-203 205 0
205 48 -70 0
203 -205 -48 0
203 -205 70 0
-204 206 0
-203 206 48 -70 0
204 -206 -48 0
204 -206 70 0
203 -206 0
-205 207 0
207 49 -71 0
205 -207 -49 0
205 -207 71 0
-206 208 0
-205 208 49 -71 0
206 -208 -49 0
206 -208 71 0
205 -208 0
-207 209 0
209 50 -72 0
207 -209 -50 0
207 -209 72 0
-208 210 0
-207 210 50 -72 0
208 -210 -50 0
208 -210 72 0
207 -210 0
-209 211 0
211 51 -73 0
209 -211 -51 0
209 -211 73 0
-210 212 0
-209 212 51 -73 0
210 -212 -51 0
210 -212 73 0
209 -212 0
-211 213 0
213 52 -74 0
211 -213 -52 0
211 -213 74 0
-212 214 0
-211 214 52 -74 0
212 -214 -52 0
212 -214 74 0
211 -214 0
-213 215 0
215 53 -75 0
213 -215 -53 0
213 -215 75 0
-214 216 0
-213 216 53 -75 0
214 -216 -53 0
214 -216 75 0
213 -216 0
-215 217 0
217 54 -76 0
215 -217 -54 0
215 -217 76 0
-216 218 0
-215 218 54 -76 0
216 -218 -54 0
216 -218 76 0
215 -218 0
-217 219 0
219 55 -77 0
217 -219 -55 0
217 -219 77 0
-218 220 0
-217 220 55 -77 0
218 -220 -55 0
218 -220 77 0
217 -220 0
-157 219 0
-157 -220 0
221 67 -89 0
-221 -67 0
-221 89 0
-221 222 0
222 68 -90 0
221 -222 -68 0
221 -222 90 0
-221 223 68 -90 0
-223 -68 0
-223 90 0
221 -223 0
-222 224 0
224 69 -91 0
222 -224 -69 0
222 -224 91 0
-223 225 0
-222 225 69 -91 0
223 -225 -69 0
223 -225 91 0
222 -225 0
-224 226 0
226 70 -92 0
224 -226 -70 0
224 -226 92 0
-225 227 0
-224 227 70 -92 0
225 -227 -70 0
225 -227 92 0
224 -227 0
-226 228 0
228 71 -93 0
226 -228 -71 0
226 -228 93 0
-227 229 0
-226 229 71 -93 0
227 -229 -71 0
227 -229 93 0
226 -229 0
-228 230 0
230 72 -94 0
228 -230 -72 0
228 -230 94 0
-229 231 0
-228 231 72 -94 0
229 -231 -72 0
229 -231 94 0
228 -231 0
-230 232 0
232 73 -95 0
230 -232 -73 0
230 -232 95 0
-231 233 0
-230 233 73 -95 0
231 -233 -73 0
231 -233 95 0
230 -233 0
-232 234 0
234 74 -96 0
232 -234 -74 0
232 -234 96 0
-233 235 0
-232 235 74 -96 0
233 -235 -74 0
233 -235 96 0
232 -235 0
-234 236 0
236 75 -97 0
234 -236 -75 0
234 -236 97 0
-235 237 0
-234 237 75 -97 0
235 -237 -75 0
235 -237 97 0
234 -237 0
-236 238 0
238 76 -98 0
236 -238 -76 0
236 -238 98 0
-237 239 0
-236 239 76 -98 0
237 -239 -76 0
237 -239 98 0
236 -239 0
-238 240 0
240 77 -99 0
238 -240 -77 0
238 -240 99 0
-239 241 0
-238 241 77 -99 0
239 -241 -77 0
239 -241 99 0
238 -241 0
-157 240 0
-157 -241 0
242 89 -111 0
-242 -89 0
-242 111 0
-242 243 0
243 90 -112 0
242 -243 -90 0
242 -243 112 0
-242 244 90 -112 0
-244 -90 0
-244 112 0
242 -244 0
-243 245 0
245 91 -113 0
243 -245 -91 0
243 -245 113 0
-244 246 0
-243 246 91 -113 0
244 -246 -91 0
244 -246 113 0
243 -246 0
-245 247 0
247 92 -114 0
245 -247 -92 0
245 -247 114 0
-246 248 0
-245 248 92 -114 0
246 -248 -92 0
246 -248 114 0
245 -248 0
-247 249 0
249 93 -115 0
247 -249 -93 0
247 -249 115 0
-248 250 0
-247 250 93 -115 0
248 -250 -93 0
248 -250 115 0
247 -250 0
-249 251 0
251 94 -116 0
249 -251 -94 0
249 -251 116 0
-250 252 0
-249 252 94 -116 0
250 -252 -94 0
250 -252 116 0
249 -252 0
-251 253 0
253 95 -117 0
251 -253 -95 0
251 -253 117 0
-252 254 0
-251 254 95 -117 0
252 -254 -95 0
252 -254 117 0
251 -254 0
-253 255 0
255 96 -118 0
253 -255 -96 0
253 -255 118 0
-254 256 0
-253 256 96 -118 0
254 -256 -96 0
254 -256 118 0
253 -256 0
-255 257 0
257 97 -119 0
255 -257 -97 0
255 -257 119 0
-256 258 0
-255 258 97 -119 0
256 -258 -97 0
256 -258 119 0
255 -258 0
-257 259 0
259 98 -120 0
257 -259 -98 0
257 -259 120 0
-258 260 0
-257 260 98 -120 0
258 -260 -98 0
258 -260 120 0
257 -260 0
-259 261 0
261 99 -121 0
259 -261 -99 0
259 -261 121 0
-260 262 0
-259 262 99 -121 0
260 -262 -99 0
260 -262 121 0
259 -262 0
-157 261 0
-157 -262 0
-263 12 0
263 -264 13 0
-265 13 0
263 -265 0
264 -266 14 0
265 -267 14 0
264 -267 0
266 -268 15 0
267 -269 15 0
266 -269 0
268 -270 16 0
269 -271 16 0
268 -271 0
270 -272 17 0
271 -273 17 0
270 -273 0
272 -274 18 0
273 -275 18 0
272 -275 0
274 -276 19 0
275 -277 19 0
274 -277 0
276 -278 20 0
277 -279 20 0
276 -279 0
278 -280 21 0
279 -281 21 0
278 -281 0
280 -282 22 0
281 -283 22 0
280 -283 0
-284 34 0
284 -285 35 0
-286 35 0
284 -286 0
285 -287 36 0
286 -288 36 0
285 -288 0
287 -289 37 0
288 -290 37 0
287 -290 0
289 -291 38 0
290 -292 38 0
289 -292 0
291 -293 39 0
292 -294 39 0
291 -294 0
293 -295 40 0
294 -296 40 0
293 -296 0
295 -297 41 0
296 -298 41 0
295 -298 0
297 -299 42 0
298 -300 42 0
297 -300 0
299 -301 43 0
300 -302 43 0
299 -302 0
301 -303 44 0
302 -304 44 0
301 -304 0
-305 56 0
305 -306 57 0
-307 57 0
305 -307 0
306 -308 58 0
307 -309 58 0
306 -309 0
308 -310 59 0
309 -311 59 0
308 -311 0
310 -312 60 0
311 -313 60 0
310 -313 0
312 -314 61 0
313 -315 61 0
312 -315 0
314 -316 62 0
315 -317 62 0
314 -317 0
316 -318 63 0
317 -319 63 0
316 -319 0
318 -320 64 0
319 -321 64 0
318 -321 0
320 -322 65 0
321 -323 65 0
320 -323 0
322 -324 66 0
323 -325 66 0
322 -325 0
-326 78 0
326 -327 79 0
-328 79 0
326 -328 0
327 -329 80 0
328 -330 80 0
327 -330 0
329 -331 81 0
330 -332 81 0
329 -332 0
331 -333 82 0
332 -334 82 0
331 -334 0
333 -335 83 0
334 -336 83 0
333 -336 0
335 -337 84 0
336 -338 84 0
335 -338 0
337 -339 85 0
338 -340 85 0
337 -340 0
339 -341 86 0
340 -342 86 0
339 -342 0
341 -343 87 0
342 -344 87 0
341 -344 0
343 -345 88 0
344 -346 88 0
343 -346 0
-347 100 0
347 -348 101 0
-349 101 0
347 -349 0
348 -350 102 0
349 -351 102 0
348 -351 0
350 -352 103 0
351 -353 103 0
350 -353 0
352 -354 104 0
353 -355 104 0
352 -355 0
354 -356 105 0
355 -357 105 0
354 -357 0
356 -358 106 0
357 -359 106 0
356 -359 0
358 -360 107 0
359 -361 107 0
358 -361 0
360 -362 108 0
361 -363 108 0
360 -363 0
362 -364 109 0
363 -365 109 0
362 -365 0
364 -366 110 0
365 -367 110 0
364 -367 0
1 -12 -125 0
23 -34 -125 0
45 -56 -125 0
67 -78 -125 0
89 -100 -125 0
2 -13 -126 0
24 -35 -126 0
46 -57 -126 0
68 -79 -126 0
90 -101 -126 0
3 -14 -127 0
25 -36 -127 0
47 -58 -127 0
69 -80 -127 0
91 -102 -127 0
4 -15 -128 0
26 -37 -128 0
48 -59 -128 0
70 -81 -128 0
92 -103 -128 0
5 -16 -129 0
27 -38 -129 0
49 -60 -129 0
71 -82 -129 0
93 -104 -129 0
6 -17 -130 0
28 -39 -130 0
50 -61 -130 0
72 -83 -130 0
94 -105 -130 0
7 -18 -131 0
29 -40 -131 0
51 -62 -131 0
73 -84 -131 0
95 -106 -131 0
8 -19 -132 0
30 -41 -132 0
52 -63 -132 0
74 -85 -132 0
96 -107 -132 0
9 -20 -133 0
31 -42 -133 0
53 -64 -133 0
75 -86 -133 0
97 -108 -133 0
10 -21 -134 0
32 -43 -134 0
54 -65 -134 0
76 -87 -134 0
98 -109 -134 0
11 -22 -135 0
33 -44 -135 0
55 -66 -135 0
77 -88 -135 0
99 -110 -135 0
-368 127 0
-368 128 0
-368 129 0
-368 126 0
368 -127 -128 -129 -126 0
-369 127 0
-369 128 0
-369 129 0
-369 130 0
369 -127 -128 -129 -130 0
-370 127 0
-370 128 0
-370 131 0
-370 133 0
-370 134 0
-370 132 0
370 -127 -128 -131 -133 -134 -132 0
-371 127 0
-371 128 0
-371 131 0
-371 133 0
-371 134 0
-371 135 0
371 -127 -128 -131 -133 -134 -135 0
-372 128 0
-372 129 0
-372 126 0
372 -128 -129 -126 0
-373 128 0
-373 129 0
-373 130 0
373 -128 -129 -130 0
-374 131 0
-374 129 0
-374 126 0
374 -131 -129 -126 0
-375 131 0
-375 129 0
-375 130 0
375 -131 -129 -130 0
-376 131 0
-376 133 0
-376 134 0
-376 132 0
376 -131 -133 -134 -132 0
-377 131 0
-377 133 0
-377 134 0
-377 135 0
377 -131 -133 -134 -135 0
-378 131 0
-378 129 0
-378 126 0
378 -131 -129 -126 0
-379 131 0
-379 129 0
-379 130 0
379 -131 -129 -130 0
-380 133 0
-380 134 0
-380 132 0
380 -133 -134 -132 0
-381 133 0
-381 134 0
-381 135 0
381 -133 -134 -135 0
-382 368 369 370 371 372 373 374 375 376 377 378 379 380 381 0
-283 -157 0
-304 -157 0
-325 -157 0
-346 -157 0
-367 -157 0
157 283 304 325 346 367 0
382 -157 0
